62
54
66
56
48
46
42
42
38
54
38
46
46
46
62
70
60
60
74
74
74
74
74
74
60
60
60
58
60
56
56
46
42
42
42
46
46
46
50
38
44
38
38
38
38
38
38
48
54
56
56
56
56
44
44
44
52
52
52
54
52
48
48
58
58
58
58
46
46
42
42
44
48
48
48
48
52
52
52
46
48
48
48
50
50
48
48
48
48
42
50
50
50
42
42
42
42
38
38
38
34
34
44
34
34
34
46
58
62
74
66
66
66
54
58
52
52
56
44
44
44
44
26
26
26
40
40
40
44
44
44
36
36
36
30
30
30
42
42
34
34
34
34
34
34
34
34
34
48
40
40
40
48
46
36
22
22
22
22
22
22
14
14
14
14
14
14
14
14
14
14
14
14
14
14
14
14
18
18
18
18
18
18
18
18
18
26
26
26
28
28
28
28
28
28
28
32
32
32
32
32
40
40
40
44
44
44
44
44
44
32
32
32
32
32
34
34
34
34
34
34
32
32
32
32
32
32
32
32
32
32
32
32
32
32
32
44
52
52
52
52
52
52
20
20
32
32
32
32
42
42
42
46
42
42
42
42
42
32
32
32
32
32
32
32
32
34
34
34
32
32
32
32
32
32
32
32
32
32
32
32
34
34
32
32
32
32
24
24
24
24
24
24
24
24
24
24
24
24
24
24
24
24
24
24
24
28
28
28
28
30
30
34
34
34
34
34
24
24
30
30
30
30
30
36
36
36
36
36
36
32
32
32
32
34
34
34
34
34
34
34
34
34
34
34
34
34
34
34
32
32
36
36
36
34
34
34
34
26
26
26
26
22
22
14
14
14
14
14
18
20
20
20
18
18
18
18
18
14
14
14
14
14
20
20
20
24
24
24
24
24
24
24
24
24
24
24
24
24
24
22
22
22
22
22
22
22
22
18
18
18
18
18
18
18
18
18
18
18
18
18
18
18
18
18
18
18
24
24
24
24
24
24
24
24
24
24
24
24
24
24
24
24
24
20
20
20
18
18
18
18
18
18
18
18
18
18
18
18
18
18
18
18
18
18
18
18
18
18
18
18
26
26
26
26
26
26
30
30
30
30
30
30
30
30
14
14
14
14
14
14
14
14
14
14
14
14
14
14
14
14
14
14
14
14
14
14
14
14
14
14
14
14
14
14
14
14
14
14
14
14
14
14
14
14
14
14
14
14
14
14
14
14
14
14
14
14
14
14
14
14
14
14
14
14
14
14
14
14
14
14
14
14
14
14
14
14
14
14
14
14
14
14
14
14
14
14
14
14
14
14
14
14
14
16
16
16
16
16
16
16
16
16
16
16
16
16
16
16
16
16
16
16
16
14
14
14
14
14
14
14
14
14
14
14
14
14
14
14
14
14
14
14
14
14
14
14
14
14
14
14
14
14
14
14
14
14
14
14
14
14
14
14
14
14
14
14
14
14
14
14
14
14
14
14
14
14
14
14
14
14
14
14
14
14
14
14
14
14
14
14
14
14
14
14
14
14
14
14
14
14
14
14
14
14
14
14
14
14
14
14
14
14
14
14
14
14
14
14
14
14
14
14
14
14
14
14
14
14
14
14
14
14
14
14
14
14
14
14
14
14
14
14
14
14
14
14
14
14
14
14
14
14
14
14
14
14
14
14
14
14
14
14
14
14
14
14
14
14
14
14
14
14
14
14
14
14
14
14
14
14
14
14
14
14
14
14
14
14
14
14
14
14
14
14
14
14
14
14
14
14
14
14
14
14
14
14
14
14
14
14
14
14
14
14
14
14
14
14
14
14
14
14
14
14
14
14
14
14
14
14
14
14
14
14
14
14
14
14
14
14
14
14
14
14
14
14
14
14
14
14
14
14
14
14
14
14
14
14
14
14
14
14
14
14
14
16
16
16
16
16
16
16
16
16
16
16
16
14
14
14
14
14
14
14
14
14
14
14
14
14
14
14
14
14
14
14
14
14
14
14
14
14
14
14
14
14
14
14
14
14
14
14
14
14
14
14
14
14
14
14
14
14
14
14
14
14
14
14
14
14
14
14
14
14
14
14
14
14
14
14
14
14
14
14
14
14
14
14
14
14
14
14
14
14
14
14
14
14
14
14
14
14
14
14
14
14
14
14
14
14
14
14
14
14
14
14
14
14
14
14
14
14
14
14
14
14
14
14
14
14
14
14
14
14
14
14
14
14
14
14
14
14
14
14
14
14
14
14
14
14
14
14
14
14
14
14
14
14
14
14
14
14
14
14
14
14
14
14
14
